518
1   1   0    144  0 19 40 41 13 25 18 4 0
1   2   0    84   0 42 44 45 33 15 37 17 0
2   1   0    146  0 12 47 14 24 43 7 23 6 0
2   2   0    86   0 46 32 1 8 26 48 27 0
3   1   0    0    0 0
3   2   0    152  0 2 3 28 31 22 11 38 5 49 0
4   1   0    51   0 35 36 20 0
4   2   0    114  0 21 34 30 39 10 9 50 16 29 0